nb_nodes = 50;
nb_data = 20;
makespan = 221506;
data_sizes = [10240, 2048, 1024, 1024, 20480, 40960, 1024, 20480, 20480, 2048, 40960, 1024, 10240, 40960, 5120, 40960, 40960, 40960, 40960, 10240];
work_duration = [100, 50, 50, 70, 50, 1, 80, 1, 100, 80, 1, 50, 1, 70, 10, 10, 100, 80, 80, 10];
bandwidths = [12, 25, 12, 12, 12, 80, 25, 80, 80, 128, 60, 25, 12, 40, 128, 80, 12, 80, 12, 12, 60, 25, 100, 80, 25, 850, 850, 650, 750, 800, 650, 850, 650, 800, 750, 700, 800, 600, 850, 750, 800, 600, 850, 850, 750, 850, 800, 600, 850, 650];
cpus = [2, 1.4, 2, 6, 1, 1.2, 6, 2, 1, 1, 2, 1.2, 10, 6, 10, 10, 10, 10, 6, 10, 6, 10, 6, 6, 6, 1.4, 1.2, 1, 1.4, 1.2, 1.4, 1, 1.4, 6, 6, 1, 1.2, 6, 7, 6, 9, 10, 6, 8, 8, 6, 8, 10, 8, 7];
energy_consumptions = [[]];
nb_works = [6, 11, 7, 3, 12, 9, 15, 13, 10, 12, 3, 8, 8, 9, 12, 12, 9, 3, 6, 8];
node_free_timespan = [];
starting_times = [10, 10, 13, 16, 29, 40, 63, 64, 69, 69, 72, 79, 79, 81, 92, 100, 102, 111, 128, 128];
